%%
% Autogenerated by /opt/prj/battleships-ai/src/server/solver.py, instance 4 10x10 [3] #2 <n6t1zzl>
% Source: https://www.puzzle-battleships.com/?size=4
%%

size = 10;
hints_num = 2;
hints = [| 2, 5 | 4, 6 |];
ships_num = 10;

constr_rows = [0, 4, 0, 1, 3, 0, 7, 0, 3, 2];
constr_cols = [1, 3, 3, 4, 1, 2, 4, 0, 1, 1];

given_ships = [|
<>, <>, <>, <>, 1, |
<>, <>, <>, <>, 1, |
<>, <>, <>, <>, 1, |
<>, <>, <>, <>, 1, |
<>, <>, <>, <>, 2, |
<>, <>, <>, <>, 2, |
<>, <>, <>, <>, 2, |
<>, <>, <>, <>, 3, |
<>, <>, <>, <>, 3, |
<>, <>, <>, <>, 4  |];

